BAYES
256
2 2 2 2 2 2 2 2 2 2 2 2 2 2 2 2 2 2 2 2 2 2 2 2 2 2 2 2 2 2 2 2 2 2 2 2 2 2 2 2 2 2 2 2 2 2 2 2 2 2 2 2 2 2 2 2 2 2 2 2 2 2 2 2 2 2 2 2 2 2 2 2 2 2 2 2 2 2 2 2 2 2 2 2 2 2 2 2 2 2 2 2 2 2 2 2 2 2 2 2 2 2 2 2 2 2 2 2 2 2 2 2 2 2 2 2 2 2 2 2 2 2 2 2 2 2 2 2 2 2 2 2 2 2 2 2 2 2 2 2 2 2 2 2 2 2 2 2 2 2 2 2 2 2 2 2 2 2 2 2 2 2 2 2 2 2 2 2 2 2 2 2 2 2 2 2 2 2 2 2 2 2 2 2 2 2 2 2 2 2 2 2 2 2 2 2 2 2 2 2 2 2 2 2 2 2 2 2 2 2 2 2 2 2 2 2 2 2 2 2 2 2 2 2 2 2 2 2 2 2 2 2 2 2 2 2 2 2 2 2 2 2 2 2 2 2 2 2 2 2 2 2 2 2 2 2
256
1 0
2 0 1
2 1 2
2 2 3
2 3 4
2 4 5
2 5 6
2 6 7
2 7 8
2 8 9
2 9 10
2 10 11
2 11 12
2 12 13
2 13 14
2 14 15
2 0 16
3 1 16 17
3 2 17 18
3 3 18 19
3 4 19 20
3 5 20 21
3 6 21 22
3 7 22 23
3 8 23 24
3 9 24 25
3 10 25 26
3 11 26 27
3 12 27 28
3 13 28 29
3 14 29 30
3 15 30 31
2 16 32
3 17 32 33
3 18 33 34
3 19 34 35
3 20 35 36
3 21 36 37
3 22 37 38
3 23 38 39
3 24 39 40
3 25 40 41
3 26 41 42
3 27 42 43
3 28 43 44
3 29 44 45
3 30 45 46
3 31 46 47
2 32 48
3 33 48 49
3 34 49 50
3 35 50 51
3 36 51 52
3 37 52 53
3 38 53 54
3 39 54 55
3 40 55 56
3 41 56 57
3 42 57 58
3 43 58 59
3 44 59 60
3 45 60 61
3 46 61 62
3 47 62 63
2 48 64
3 49 64 65
3 50 65 66
3 51 66 67
3 52 67 68
3 53 68 69
3 54 69 70
3 55 70 71
3 56 71 72
3 57 72 73
3 58 73 74
3 59 74 75
3 60 75 76
3 61 76 77
3 62 77 78
3 63 78 79
2 64 80
3 65 80 81
3 66 81 82
3 67 82 83
3 68 83 84
3 69 84 85
3 70 85 86
3 71 86 87
3 72 87 88
3 73 88 89
3 74 89 90
3 75 90 91
3 76 91 92
3 77 92 93
3 78 93 94
3 79 94 95
2 80 96
3 81 96 97
3 82 97 98
3 83 98 99
3 84 99 100
3 85 100 101
3 86 101 102
3 87 102 103
3 88 103 104
3 89 104 105
3 90 105 106
3 91 106 107
3 92 107 108
3 93 108 109
3 94 109 110
3 95 110 111
2 96 112
3 97 112 113
3 98 113 114
3 99 114 115
3 100 115 116
3 101 116 117
3 102 117 118
3 103 118 119
3 104 119 120
3 105 120 121
3 106 121 122
3 107 122 123
3 108 123 124
3 109 124 125
3 110 125 126
3 111 126 127
2 112 128
3 113 128 129
3 114 129 130
3 115 130 131
3 116 131 132
3 117 132 133
3 118 133 134
3 119 134 135
3 120 135 136
3 121 136 137
3 122 137 138
3 123 138 139
3 124 139 140
3 125 140 141
3 126 141 142
3 127 142 143
2 128 144
3 129 144 145
3 130 145 146
3 131 146 147
3 132 147 148
3 133 148 149
3 134 149 150
3 135 150 151
3 136 151 152
3 137 152 153
3 138 153 154
3 139 154 155
3 140 155 156
3 141 156 157
3 142 157 158
3 143 158 159
2 144 160
3 145 160 161
3 146 161 162
3 147 162 163
3 148 163 164
3 149 164 165
3 150 165 166
3 151 166 167
3 152 167 168
3 153 168 169
3 154 169 170
3 155 170 171
3 156 171 172
3 157 172 173
3 158 173 174
3 159 174 175
2 160 176
3 161 176 177
3 162 177 178
3 163 178 179
3 164 179 180
3 165 180 181
3 166 181 182
3 167 182 183
3 168 183 184
3 169 184 185
3 170 185 186
3 171 186 187
3 172 187 188
3 173 188 189
3 174 189 190
3 175 190 191
2 176 192
3 177 192 193
3 178 193 194
3 179 194 195
3 180 195 196
3 181 196 197
3 182 197 198
3 183 198 199
3 184 199 200
3 185 200 201
3 186 201 202
3 187 202 203
3 188 203 204
3 189 204 205
3 190 205 206
3 191 206 207
2 192 208
3 193 208 209
3 194 209 210
3 195 210 211
3 196 211 212
3 197 212 213
3 198 213 214
3 199 214 215
3 200 215 216
3 201 216 217
3 202 217 218
3 203 218 219
3 204 219 220
3 205 220 221
3 206 221 222
3 207 222 223
2 208 224
3 209 224 225
3 210 225 226
3 211 226 227
3 212 227 228
3 213 228 229
3 214 229 230
3 215 230 231
3 216 231 232
3 217 232 233
3 218 233 234
3 219 234 235
3 220 235 236
3 221 236 237
3 222 237 238
3 223 238 239
2 224 240
3 225 240 241
3 226 241 242
3 227 242 243
3 228 243 244
3 229 244 245
3 230 245 246
3 231 246 247
3 232 247 248
3 233 248 249
3 234 249 250
3 235 250 251
3 236 251 252
3 237 252 253
3 238 253 254
3 239 254 255
2
0 1
4
0 1 1 0
4
0 1 1 0
4
1 0 1 0
4
1 0 0 1
4
0.8007251122027604 0.19927488779723954 0.48464439747443455 0.5153556025255654
4
1 0 0 1
4
0.28099755916701163 0.7190024408329884 0.5073318405446325 0.49266815945536746
4
1 0 1 0
4
0 1 1 0
4
0 1 0 1
4
1 0 0 1
4
0 1 0 1
4
1 0 1 0
4
1 0 0 1
4
0 1 0 1
4
0.9912124578367822 0.008787542163217735 0.7415397516195779 0.25846024838042214
8
0 1 1 0 1 0 0 1
8
1 0 1 0 1 0 1 0
8
1 0 1 0 0 1 1 0
8
0 1 1 0 0 1 1 0
8
1 0 0 1 0 1 0 1
8
0.7745650326824881 0.22543496731751195 0.661746226023214 0.33825377397678597 0.31531653123500175 0.6846834687649984 0.04267561624294841 0.9573243837570515
8
0 1 0 1 1 0 1 0
8
1 0 1 0 0 1 1 0
8
1 0 0 1 0 1 1 0
8
1 0 0 1 0 1 0 1
8
1 0 1 0 1 0 1 0
8
1 0 0 1 1 0 1 0
8
0 1 1 0 1 0 1 0
8
1 0 1 0 0 1 0 1
8
1 0 1 0 0 1 1 0
4
1 0 0 1
8
1 0 0 1 0 1 1 0
8
0.6907950794707051 0.309204920529295 0.07613264182296933 0.9238673581770307 0.21558117383020048 0.7844188261697995 0.7255102195788635 0.27448978042113653
8
1 0 1 0 1 0 0 1
8
1 0 1 0 1 0 0 1
8
0.7471440009211447 0.25285599907885525 0.525847145860366 0.4741528541396341 0.26239817196212467 0.7376018280378753 0.5464139531062088 0.4535860468937913
8
0 1 1 0 0 1 1 0
8
0 1 1 0 1 0 0 1
8
0 1 1 0 1 0 1 0
8
1 0 1 0 1 0 0 1
8
0 1 0 1 1 0 0 1
8
0 1 1 0 1 0 0 1
8
1 0 1 0 1 0 1 0
8
0 1 0 1 0 1 1 0
8
0 1 0 1 1 0 1 0
8
0 1 0 1 0 1 0 1
4
0 1 1 0
8
0.6597287986376602 0.34027120136233974 0.7522888501730597 0.2477111498269403 0.19380210548800667 0.8061978945119933 0.5103062953430971 0.48969370465690293
8
0 1 1 0 1 0 0 1
8
0 1 1 0 1 0 1 0
8
1 0 0 1 1 0 0 1
8
1 0 1 0 1 0 0 1
8
1 0 1 0 1 0 1 0
8
1 0 1 0 1 0 1 0
8
0 1 1 0 0 1 1 0
8
1 0 1 0 0 1 1 0
8
0 1 1 0 1 0 0 1
8
1 0 0 1 1 0 1 0
8
0 1 0 1 0 1 1 0
8
0.4990841139178605 0.5009158860821395 0.8817273206148859 0.11827267938511424 0.7348550014621265 0.2651449985378736 0.1859415321692433 0.8140584678307567
8
1 0 1 0 1 0 0 1
8
1 0 0 1 1 0 1 0
4
0 1 0 1
8
1 0 1 0 1 0 1 0
8
1 0 1 0 0 1 0 1
8
1 0 1 0 1 0 1 0
8
0 1 0 1 1 0 0 1
8
0 1 0 1 0 1 0 1
8
1 0 0 1 1 0 0 1
8
1 0 0 1 0 1 0 1
8
1 0 0 1 0 1 1 0
8
0 1 0 1 0 1 0 1
8
1 0 1 0 0 1 0 1
8
0 1 1 0 1 0 1 0
8
0 1 0 1 0 1 0 1
8
1 0 0 1 0 1 1 0
8
0 1 1 0 0 1 0 1
8
1 0 1 0 0 1 1 0
4
1 0 1 0
8
0.8760425475249345 0.12395745247506557 0.5039351709649422 0.4960648290350577 0.3953021921895224 0.6046978078104776 0.2409053534047096 0.7590946465952904
8
0 1 1 0 1 0 1 0
8
1 0 1 0 0 1 1 0
8
0 1 0 1 1 0 0 1
8
1 0 0 1 0 1 0 1
8
0 1 1 0 0 1 1 0
8
0 1 1 0 1 0 1 0
8
1 0 1 0 0 1 1 0
8
0 1 0 1 0 1 0 1
8
0 1 0 1 1 0 1 0
8
0 1 1 0 0 1 1 0
8
1 0 1 0 1 0 0 1
8
0 1 0 1 0 1 0 1
8
0 1 0 1 0 1 0 1
8
0 1 0 1 1 0 0 1
4
1 0 1 0
8
0 1 0 1 0 1 0 1
8
1 0 0 1 1 0 0 1
8
0 1 0 1 0 1 1 0
8
0 1 1 0 0 1 1 0
8
1 0 0 1 1 0 1 0
8
0 1 1 0 1 0 1 0
8
0 1 0 1 0 1 0 1
8
0 1 0 1 1 0 0 1
8
0 1 1 0 0 1 0 1
8
1 0 0 1 1 0 1 0
8
1 0 1 0 1 0 1 0
8
0 1 1 0 0 1 0 1
8
0 1 1 0 1 0 0 1
8
1 0 0 1 1 0 0 1
8
0 1 1 0 0 1 0 1
4
1 0 1 0
8
0 1 0 1 0 1 1 0
8
0.697550696966222 0.3024493030337781 0.38584907667228346 0.6141509233277165 0.4118823371672904 0.5881176628327096 0.6670116816915921 0.33298831830840786
8
1 0 0 1 1 0 1 0
8
0 1 1 0 1 0 0 1
8
0 1 1 0 1 0 1 0
8
0 1 1 0 1 0 0 1
8
1 0 0 1 0 1 1 0
8
0 1 0 1 0 1 0 1
8
0 1 1 0 0 1 0 1
8
1 0 0 1 0 1 0 1
8
1 0 1 0 0 1 1 0
8
1 0 1 0 0 1 0 1
8
1 0 1 0 0 1 1 0
8
0 1 0 1 0 1 1 0
8
0 1 1 0 1 0 1 0
4
1 0 1 0
8
1 0 0 1 0 1 0 1
8
0 1 1 0 1 0 1 0
8
1 0 1 0 1 0 1 0
8
1 0 0 1 1 0 1 0
8
1 0 1 0 1 0 0 1
8
1 0 1 0 0 1 0 1
8
1 0 0 1 1 0 1 0
8
1 0 0 1 0 1 1 0
8
1 0 0 1 0 1 0 1
8
1 0 0 1 1 0 0 1
8
1 0 0 1 0 1 1 0
8
1 0 1 0 1 0 1 0
8
1 0 0 1 0 1 0 1
8
0 1 1 0 1 0 1 0
8
1 0 0 1 1 0 0 1
4
0 1 0 1
8
0 1 0 1 0 1 0 1
8
1 0 0 1 1 0 1 0
8
1 0 0 1 1 0 1 0
8
0 1 1 0 0 1 0 1
8
1 0 0 1 0 1 0 1
8
0.2289908139989592 0.7710091860010407 0.1537451931443973 0.8462548068556027 0.577885364844082 0.42211463515591796 0.1960358788078566 0.8039641211921434
8
0 1 0 1 0 1 1 0
8
0 1 1 0 0 1 1 0
8
0.034824418537020944 0.9651755814629791 0.20419713866290504 0.795802861337095 0.18651088353559228 0.8134891164644078 0.23572193760576168 0.7642780623942383
8
0.41698761391546046 0.5830123860845394 0.23995317485035933 0.7600468251496408 0.3149840841650514 0.6850159158349486 0.9737321470559333 0.026267852944066795
8
0 1 1 0 0 1 1 0
8
0 1 1 0 0 1 0 1
8
0 1 0 1 1 0 0 1
8
1 0 0 1 1 0 0 1
8
1 0 0 1 0 1 1 0
4
1 0 1 0
8
0 1 0 1 0 1 1 0
8
1 0 1 0 1 0 1 0
8
1 0 0 1 0 1 0 1
8
1 0 0 1 1 0 1 0
8
0 1 0 1 1 0 1 0
8
1 0 1 0 1 0 1 0
8
0.7251403938933749 0.274859606106625 0.43607157376176103 0.563928426238239 0.49469496098666854 0.5053050390133313 0.4794241525289547 0.5205758474710453
8
1 0 1 0 1 0 0 1
8
0 1 1 0 1 0 0 1
8
1 0 0 1 0 1 0 1
8
0 1 1 0 1 0 1 0
8
0 1 0 1 0 1 1 0
8
1 0 0 1 0 1 0 1
8
0 1 1 0 0 1 1 0
8
1 0 0 1 0 1 0 1
4
1 0 0 1
8
0 1 0 1 1 0 0 1
8
1 0 0 1 1 0 0 1
8
1 0 1 0 1 0 1 0
8
0 1 0 1 0 1 1 0
8
1 0 1 0 1 0 0 1
8
0 1 0 1 1 0 1 0
8
0 1 1 0 1 0 0 1
8
0 1 1 0 0 1 0 1
8
0 1 1 0 1 0 0 1
8
0 1 1 0 0 1 0 1
8
1 0 1 0 1 0 0 1
8
0 1 1 0 0 1 1 0
8
1 0 1 0 0 1 1 0
8
1 0 0 1 1 0 1 0
8
1 0 1 0 1 0 1 0
4
0.9708845198819241 0.02911548011807582 0.9115560803012195 0.08844391969878047
8
0 1 0 1 0 1 0 1
8
0.555862213734291 0.44413778626570904 0.22345076555069446 0.7765492344493056 0.42406007366300663 0.5759399263369933 0.13284653308157002 0.86715346691843
8
0 1 1 0 0 1 1 0
8
1 0 0 1 1 0 0 1
8
0 1 0 1 0 1 0 1
8
0 1 0 1 0 1 1 0
8
1 0 0 1 1 0 1 0
8
1 0 1 0 1 0 1 0
8
0.6654083598550582 0.3345916401449418 0.13167209568807814 0.8683279043119219 0.4152188742850445 0.5847811257149554 0.7942397893826876 0.20576021061731242
8
1 0 1 0 1 0 0 1
8
0 1 0 1 0 1 0 1
8
0 1 0 1 0 1 1 0
8
0 1 0 1 0 1 0 1
8
1 0 0 1 0 1 1 0
8
1 0 0 1 1 0 1 0
4
1 0 0 1
8
1 0 1 0 1 0 0 1
8
0 1 0 1 1 0 0 1
8
1 0 1 0 0 1 1 0
8
0 1 1 0 1 0 0 1
8
1 0 0 1 0 1 0 1
8
0.747451545085324 0.2525484549146759 0.6329918896633501 0.36700811033665 0.5912266607830787 0.4087733392169213 0.4938056518172668 0.5061943481827331
8
1 0 0 1 1 0 1 0
8
0.5672016843089982 0.43279831569100174 0.5334913138891457 0.46650868611085433 0.10594260645189993 0.8940573935481001 0.04048486512334139 0.9595151348766586
8
0 1 1 0 0 1 0 1
8
1 0 0 1 0 1 1 0
8
0.378173828120468 0.6218261718795319 0.5972130393135208 0.4027869606864793 0.6451753260760977 0.3548246739239023 0.3692705346202815 0.6307294653797186
8
1 0 1 0 1 0 0 1
8
1 0 0 1 1 0 1 0
8
0.6836568420926943 0.3163431579073058 0.5762795269158291 0.42372047308417093 0.4246400559472824 0.5753599440527175 0.22784421111910816 0.7721557888808919
8
0.1910034708128447 0.8089965291871553 0.4105917154550759 0.5894082845449242 0.5062575700042818 0.4937424299957181 0.8491483687315096 0.15085163126849044
4
1 0 1 0
8
1 0 0 1 1 0 1 0
8
0.3249352962476276 0.6750647037523723 0.745540386742291 0.25445961325770905 0.5969845762999771 0.4030154237000228 0.8351518722650811 0.16484812773491883
8
1 0 0 1 0 1 0 1
8
0 1 0 1 1 0 0 1
8
0 1 1 0 0 1 1 0
8
0 1 0 1 1 0 1 0
8
0 1 0 1 0 1 1 0
8
1 0 0 1 0 1 1 0
8
1 0 0 1 0 1 0 1
8
1 0 1 0 0 1 1 0
8
0 1 0 1 0 1 0 1
8
1 0 1 0 0 1 1 0
8
0 1 0 1 1 0 0 1
8
1 0 1 0 1 0 0 1
8
0 1 1 0 0 1 0 1
4
1 0 1 0
8
0 1 0 1 0 1 1 0
8
1 0 0 1 0 1 0 1
8
1 0 0 1 0 1 0 1
8
1 0 0 1 0 1 1 0
8
1 0 0 1 1 0 0 1
8
1 0 0 1 0 1 0 1
8
1 0 1 0 1 0 1 0
8
0.7242138146991801 0.27578618530081994 0.5340904195572133 0.4659095804427867 0.40900533980582876 0.5909946601941712 0.9867863110520725 0.01321368894792753
8
0.05940672686287651 0.9405932731371235 0.49150407988200423 0.5084959201179957 0.5879912960496837 0.4120087039503163 0.4656222616467109 0.5343777383532891
8
0 1 1 0 0 1 1 0
8
0 1 0 1 0 1 1 0
8
0 1 0 1 1 0 0 1
8
0.44801529499342907 0.5519847050065709 0.5528062213785279 0.44719377862147214 0.21357325714058026 0.7864267428594197 0.9171420233060003 0.08285797669399976
8
1 0 0 1 0 1 1 0
8
0 1 1 0 1 0 0 1
